Minimize
	value: tt

Subject to
tt + 1000 s_1_1 > 0.0
tt - t_1_1 - 1003.339903 s_1_1  + 3.339903 s_1_7  > -983.004950
tt + 1000 s_2_1 > 0.0
tt - t_2_1 - 1002.889826 s_2_1  + 2.889826 s_2_7  > -983.303900
tt + 1000 s_1_2 > 0.0
tt - t_1_2 - 1003.339903 s_1_2  + 3.339903 s_1_8  > -981.842811
tt + 1000 s_2_2 > 0.0
tt - t_2_2 - 1002.889826 s_2_2  + 2.889826 s_2_8  > -982.602643
tt + 1000 s_1_3 > 0.0
tt - t_1_3 - 1003.339903 s_1_3  + 3.339903 s_1_8  > -970.343075
tt + 1000 s_2_3 > 0.0
tt - t_2_3 - 1002.889826 s_2_3  + 2.889826 s_2_8  > -977.783867
tt + 1000 s_1_4 > 0.0
tt - t_1_4 - 1004.987432 s_1_4  + 1.647529 s_1_3  + 3.339903 s_1_8  > -984.782467
tt + 1000 s_2_4 > 0.0
tt - t_2_4 - 1004.389254 s_2_4  + 1.499428 s_2_3  + 2.889826 s_2_8  > -990.187567
tt + 1000 s_1_5 > 0.0
tt - t_1_5 - 1006.679806 s_1_5  + 3.339903 s_1_7  + 3.339903 s_1_8  > -977.655892
tt + 1000 s_2_5 > 0.0
tt - t_2_5 - 1005.779651 s_2_5  + 2.889826 s_2_7  + 2.889826 s_2_8  > -983.513500
tt + 1000 s_1_6 > 0.0
tt - t_1_6 - 1008.237644 s_1_6  + 1.647529 s_1_2  + 1.647529 s_1_4  + 1.647529 s_1_3  + 1.647529 s_1_1  + 1.647529 s_1_5  > -998.804667
tt + 1000 s_2_6 > 0.0
tt - t_2_6 - 1007.497142 s_2_6  + 1.499428 s_2_2  + 1.499428 s_2_4  + 1.499428 s_2_3  + 1.499428 s_2_1  + 1.499428 s_2_5  > -991.878900
tt + 1000 s_1_7 > 0.0
tt - t_1_7 - 1000.000000 s_1_7  > -937.703200
tt + 1000 s_2_7 > 0.0
tt - t_2_7 - 1000.000000 s_2_7  > -972.711300
tt + 1000 s_1_8 > 0.0
tt - t_1_8 - 1000.000000 s_1_8  > -937.705171
tt + 1000 s_2_8 > 0.0
tt - t_2_8 - 1000.000000 s_2_8  > -972.869500
s_1_1 + s_2_1 = 1
s_1_2 + s_2_2 = 1
s_1_3 + s_2_3 = 1
s_1_4 + s_2_4 = 1
s_1_5 + s_2_5 = 1
s_1_6 + s_2_6 = 1
s_1_7 + s_2_7 = 1
s_1_8 + s_2_8 = 1
s_1_1 + s_1_2 + 1000 r_1_1_2 >= 2
- s_1_1 - s_1_2 - 1000 r_1_1_2 >= -1001
t_1_1 - t_1_2 - 1000.000000 u_1_1_2 - 3.339903 s_1_2  + 3.339903 s_1_8  + 2000.000000 r_1_1_2 > -981.842811
s_2_1 + s_2_2 + 1000 r_2_1_2 >= 2
- s_2_1 - s_2_2 - 1000 r_2_1_2 >= -1001
t_2_1 - t_2_2 - 1000.000000 u_2_1_2 - 2.889826 s_2_2  + 2.889826 s_2_8  + 2000.000000 r_2_1_2 > -982.602643
s_1_1 + s_1_3 + 1000 r_1_1_3 >= 2
- s_1_1 - s_1_3 - 1000 r_1_1_3 >= -1001
t_1_1 - t_1_3 - 1000.000000 u_1_1_3 - 3.339903 s_1_3  + 3.339903 s_1_8  + 2000.000000 r_1_1_3 > -970.343075
s_2_1 + s_2_3 + 1000 r_2_1_3 >= 2
- s_2_1 - s_2_3 - 1000 r_2_1_3 >= -1001
t_2_1 - t_2_3 - 1000.000000 u_2_1_3 - 2.889826 s_2_3  + 2.889826 s_2_8  + 2000.000000 r_2_1_3 > -977.783867
s_1_1 + s_1_4 + 1000 r_1_1_4 >= 2
- s_1_1 - s_1_4 - 1000 r_1_1_4 >= -1001
t_1_1 - t_1_4 - 1000.000000 u_1_1_4 - 4.987432 s_1_4  + 1.647529 s_1_3  + 3.339903 s_1_8  + 2000.000000 r_1_1_4 > -984.782467
s_2_1 + s_2_4 + 1000 r_2_1_4 >= 2
- s_2_1 - s_2_4 - 1000 r_2_1_4 >= -1001
t_2_1 - t_2_4 - 1000.000000 u_2_1_4 - 4.389254 s_2_4  + 1.499428 s_2_3  + 2.889826 s_2_8  + 2000.000000 r_2_1_4 > -990.187567
s_1_1 + s_1_5 + 1000 r_1_1_5 >= 2
- s_1_1 - s_1_5 - 1000 r_1_1_5 >= -1001
t_1_1 - t_1_5 - 1000.000000 u_1_1_5 - 6.679806 s_1_5  + 3.339903 s_1_7  + 3.339903 s_1_8  + 2000.000000 r_1_1_5 > -977.655892
s_2_1 + s_2_5 + 1000 r_2_1_5 >= 2
- s_2_1 - s_2_5 - 1000 r_2_1_5 >= -1001
t_2_1 - t_2_5 - 1000.000000 u_2_1_5 - 5.779651 s_2_5  + 2.889826 s_2_7  + 2.889826 s_2_8  + 2000.000000 r_2_1_5 > -983.513500
t_1_6 - t_1_1 - 1003.339903 s_1_1  + 3.339903 s_1_7  > -983.004950
t_1_6 - t_2_1 - 1002.889826 s_2_1  + 2.889826 s_2_7  > -983.303900
t_2_6 - t_1_1 - 1003.339903 s_1_1  + 3.339903 s_1_7  > -983.004950
t_2_6 - t_2_1 - 1002.889826 s_2_1  + 2.889826 s_2_7  > -983.303900
t_1_1 - t_1_7 - 1000.000000 s_1_7  > -937.703200
t_1_1 - t_2_7 - 1000.000000 s_2_7  > -972.711300
t_2_1 - t_1_7 - 1000.000000 s_1_7  > -937.703200
t_2_1 - t_2_7 - 1000.000000 s_2_7  > -972.711300
s_1_1 + s_1_8 + 1000 r_1_1_8 >= 2
- s_1_1 - s_1_8 - 1000 r_1_1_8 >= -1001
t_1_1 - t_1_8 - 1000.000000 u_1_1_8 - 0.000000 s_1_8  + 2000.000000 r_1_1_8 > -937.705171
s_2_1 + s_2_8 + 1000 r_2_1_8 >= 2
- s_2_1 - s_2_8 - 1000 r_2_1_8 >= -1001
t_2_1 - t_2_8 - 1000.000000 u_2_1_8 - 0.000000 s_2_8  + 2000.000000 r_2_1_8 > -972.869500
s_1_2 + s_1_1 + 1000 r_1_1_2 >= 2
- s_1_2 - s_1_1 - 1000 r_1_1_2 >= -1001
t_1_2 - t_1_1 + 1000.000000 u_1_1_2 - 3.339903 s_1_1  + 3.339903 s_1_7  + 2000.000000 r_1_1_2 > 16.995050
s_2_2 + s_2_1 + 1000 r_2_1_2 >= 2
- s_2_2 - s_2_1 - 1000 r_2_1_2 >= -1001
t_2_2 - t_2_1 + 1000.000000 u_2_1_2 - 2.889826 s_2_1  + 2.889826 s_2_7  + 2000.000000 r_2_1_2 > 16.696100
s_1_2 + s_1_3 + 1000 r_1_2_3 >= 2
- s_1_2 - s_1_3 - 1000 r_1_2_3 >= -1001
t_1_2 - t_1_3 - 1000.000000 u_1_2_3 - 3.339903 s_1_3  + 3.339903 s_1_8  + 2000.000000 r_1_2_3 > -970.343075
s_2_2 + s_2_3 + 1000 r_2_2_3 >= 2
- s_2_2 - s_2_3 - 1000 r_2_2_3 >= -1001
t_2_2 - t_2_3 - 1000.000000 u_2_2_3 - 2.889826 s_2_3  + 2.889826 s_2_8  + 2000.000000 r_2_2_3 > -977.783867
s_1_2 + s_1_4 + 1000 r_1_2_4 >= 2
- s_1_2 - s_1_4 - 1000 r_1_2_4 >= -1001
t_1_2 - t_1_4 - 1000.000000 u_1_2_4 - 4.987432 s_1_4  + 1.647529 s_1_3  + 3.339903 s_1_8  + 2000.000000 r_1_2_4 > -984.782467
s_2_2 + s_2_4 + 1000 r_2_2_4 >= 2
- s_2_2 - s_2_4 - 1000 r_2_2_4 >= -1001
t_2_2 - t_2_4 - 1000.000000 u_2_2_4 - 4.389254 s_2_4  + 1.499428 s_2_3  + 2.889826 s_2_8  + 2000.000000 r_2_2_4 > -990.187567
s_1_2 + s_1_5 + 1000 r_1_2_5 >= 2
- s_1_2 - s_1_5 - 1000 r_1_2_5 >= -1001
t_1_2 - t_1_5 - 1000.000000 u_1_2_5 - 6.679806 s_1_5  + 3.339903 s_1_7  + 3.339903 s_1_8  + 2000.000000 r_1_2_5 > -977.655892
s_2_2 + s_2_5 + 1000 r_2_2_5 >= 2
- s_2_2 - s_2_5 - 1000 r_2_2_5 >= -1001
t_2_2 - t_2_5 - 1000.000000 u_2_2_5 - 5.779651 s_2_5  + 2.889826 s_2_7  + 2.889826 s_2_8  + 2000.000000 r_2_2_5 > -983.513500
t_1_6 - t_1_2 - 1003.339903 s_1_2  + 3.339903 s_1_8  > -981.842811
t_1_6 - t_2_2 - 1002.889826 s_2_2  + 2.889826 s_2_8  > -982.602643
t_2_6 - t_1_2 - 1003.339903 s_1_2  + 3.339903 s_1_8  > -981.842811
t_2_6 - t_2_2 - 1002.889826 s_2_2  + 2.889826 s_2_8  > -982.602643
s_1_2 + s_1_7 + 1000 r_1_2_7 >= 2
- s_1_2 - s_1_7 - 1000 r_1_2_7 >= -1001
t_1_2 - t_1_7 - 1000.000000 u_1_2_7 - 0.000000 s_1_7  + 2000.000000 r_1_2_7 > -937.703200
s_2_2 + s_2_7 + 1000 r_2_2_7 >= 2
- s_2_2 - s_2_7 - 1000 r_2_2_7 >= -1001
t_2_2 - t_2_7 - 1000.000000 u_2_2_7 - 0.000000 s_2_7  + 2000.000000 r_2_2_7 > -972.711300
t_1_2 - t_1_8 - 1000.000000 s_1_8  > -937.705171
t_1_2 - t_2_8 - 1000.000000 s_2_8  > -972.869500
t_2_2 - t_1_8 - 1000.000000 s_1_8  > -937.705171
t_2_2 - t_2_8 - 1000.000000 s_2_8  > -972.869500
s_1_3 + s_1_1 + 1000 r_1_1_3 >= 2
- s_1_3 - s_1_1 - 1000 r_1_1_3 >= -1001
t_1_3 - t_1_1 + 1000.000000 u_1_1_3 - 3.339903 s_1_1  + 3.339903 s_1_7  + 2000.000000 r_1_1_3 > 16.995050
s_2_3 + s_2_1 + 1000 r_2_1_3 >= 2
- s_2_3 - s_2_1 - 1000 r_2_1_3 >= -1001
t_2_3 - t_2_1 + 1000.000000 u_2_1_3 - 2.889826 s_2_1  + 2.889826 s_2_7  + 2000.000000 r_2_1_3 > 16.696100
s_1_3 + s_1_2 + 1000 r_1_2_3 >= 2
- s_1_3 - s_1_2 - 1000 r_1_2_3 >= -1001
t_1_3 - t_1_2 + 1000.000000 u_1_2_3 - 3.339903 s_1_2  + 3.339903 s_1_8  + 2000.000000 r_1_2_3 > 18.157189
s_2_3 + s_2_2 + 1000 r_2_2_3 >= 2
- s_2_3 - s_2_2 - 1000 r_2_2_3 >= -1001
t_2_3 - t_2_2 + 1000.000000 u_2_2_3 - 2.889826 s_2_2  + 2.889826 s_2_8  + 2000.000000 r_2_2_3 > 17.397357
t_1_4 - t_1_3 - 1003.339903 s_1_3  + 3.339903 s_1_8  > -970.343075
t_1_4 - t_2_3 - 1002.889826 s_2_3  + 2.889826 s_2_8  > -977.783867
t_2_4 - t_1_3 - 1003.339903 s_1_3  + 3.339903 s_1_8  > -970.343075
t_2_4 - t_2_3 - 1002.889826 s_2_3  + 2.889826 s_2_8  > -977.783867
s_1_3 + s_1_5 + 1000 r_1_3_5 >= 2
- s_1_3 - s_1_5 - 1000 r_1_3_5 >= -1001
t_1_3 - t_1_5 - 1000.000000 u_1_3_5 - 6.679806 s_1_5  + 3.339903 s_1_7  + 3.339903 s_1_8  + 2000.000000 r_1_3_5 > -977.655892
s_2_3 + s_2_5 + 1000 r_2_3_5 >= 2
- s_2_3 - s_2_5 - 1000 r_2_3_5 >= -1001
t_2_3 - t_2_5 - 1000.000000 u_2_3_5 - 5.779651 s_2_5  + 2.889826 s_2_7  + 2.889826 s_2_8  + 2000.000000 r_2_3_5 > -983.513500
t_1_6 - t_1_3 - 1003.339903 s_1_3  + 3.339903 s_1_8  > -970.343075
t_1_6 - t_2_3 - 1002.889826 s_2_3  + 2.889826 s_2_8  > -977.783867
t_2_6 - t_1_3 - 1003.339903 s_1_3  + 3.339903 s_1_8  > -970.343075
t_2_6 - t_2_3 - 1002.889826 s_2_3  + 2.889826 s_2_8  > -977.783867
s_1_3 + s_1_7 + 1000 r_1_3_7 >= 2
- s_1_3 - s_1_7 - 1000 r_1_3_7 >= -1001
t_1_3 - t_1_7 - 1000.000000 u_1_3_7 - 0.000000 s_1_7  + 2000.000000 r_1_3_7 > -937.703200
s_2_3 + s_2_7 + 1000 r_2_3_7 >= 2
- s_2_3 - s_2_7 - 1000 r_2_3_7 >= -1001
t_2_3 - t_2_7 - 1000.000000 u_2_3_7 - 0.000000 s_2_7  + 2000.000000 r_2_3_7 > -972.711300
t_1_3 - t_1_8 - 1000.000000 s_1_8  > -937.705171
t_1_3 - t_2_8 - 1000.000000 s_2_8  > -972.869500
t_2_3 - t_1_8 - 1000.000000 s_1_8  > -937.705171
t_2_3 - t_2_8 - 1000.000000 s_2_8  > -972.869500
s_1_4 + s_1_1 + 1000 r_1_1_4 >= 2
- s_1_4 - s_1_1 - 1000 r_1_1_4 >= -1001
t_1_4 - t_1_1 + 1000.000000 u_1_1_4 - 3.339903 s_1_1  + 3.339903 s_1_7  + 2000.000000 r_1_1_4 > 16.995050
s_2_4 + s_2_1 + 1000 r_2_1_4 >= 2
- s_2_4 - s_2_1 - 1000 r_2_1_4 >= -1001
t_2_4 - t_2_1 + 1000.000000 u_2_1_4 - 2.889826 s_2_1  + 2.889826 s_2_7  + 2000.000000 r_2_1_4 > 16.696100
s_1_4 + s_1_2 + 1000 r_1_2_4 >= 2
- s_1_4 - s_1_2 - 1000 r_1_2_4 >= -1001
t_1_4 - t_1_2 + 1000.000000 u_1_2_4 - 3.339903 s_1_2  + 3.339903 s_1_8  + 2000.000000 r_1_2_4 > 18.157189
s_2_4 + s_2_2 + 1000 r_2_2_4 >= 2
- s_2_4 - s_2_2 - 1000 r_2_2_4 >= -1001
t_2_4 - t_2_2 + 1000.000000 u_2_2_4 - 2.889826 s_2_2  + 2.889826 s_2_8  + 2000.000000 r_2_2_4 > 17.397357
s_1_4 + s_1_5 + 1000 r_1_4_5 >= 2
- s_1_4 - s_1_5 - 1000 r_1_4_5 >= -1001
t_1_4 - t_1_5 - 1000.000000 u_1_4_5 - 6.679806 s_1_5  + 3.339903 s_1_7  + 3.339903 s_1_8  + 2000.000000 r_1_4_5 > -977.655892
s_2_4 + s_2_5 + 1000 r_2_4_5 >= 2
- s_2_4 - s_2_5 - 1000 r_2_4_5 >= -1001
t_2_4 - t_2_5 - 1000.000000 u_2_4_5 - 5.779651 s_2_5  + 2.889826 s_2_7  + 2.889826 s_2_8  + 2000.000000 r_2_4_5 > -983.513500
t_1_6 - t_1_4 - 1004.987432 s_1_4  + 1.647529 s_1_3  + 3.339903 s_1_8  > -984.782467
t_1_6 - t_2_4 - 1004.389254 s_2_4  + 1.499428 s_2_3  + 2.889826 s_2_8  > -990.187567
t_2_6 - t_1_4 - 1004.987432 s_1_4  + 1.647529 s_1_3  + 3.339903 s_1_8  > -984.782467
t_2_6 - t_2_4 - 1004.389254 s_2_4  + 1.499428 s_2_3  + 2.889826 s_2_8  > -990.187567
s_1_4 + s_1_7 + 1000 r_1_4_7 >= 2
- s_1_4 - s_1_7 - 1000 r_1_4_7 >= -1001
t_1_4 - t_1_7 - 1000.000000 u_1_4_7 - 0.000000 s_1_7  + 2000.000000 r_1_4_7 > -937.703200
s_2_4 + s_2_7 + 1000 r_2_4_7 >= 2
- s_2_4 - s_2_7 - 1000 r_2_4_7 >= -1001
t_2_4 - t_2_7 - 1000.000000 u_2_4_7 - 0.000000 s_2_7  + 2000.000000 r_2_4_7 > -972.711300
t_1_4 - t_1_8 - 1000.000000 s_1_8  > -937.705171
t_1_4 - t_2_8 - 1000.000000 s_2_8  > -972.869500
t_2_4 - t_1_8 - 1000.000000 s_1_8  > -937.705171
t_2_4 - t_2_8 - 1000.000000 s_2_8  > -972.869500
s_1_5 + s_1_1 + 1000 r_1_1_5 >= 2
- s_1_5 - s_1_1 - 1000 r_1_1_5 >= -1001
t_1_5 - t_1_1 + 1000.000000 u_1_1_5 - 3.339903 s_1_1  + 3.339903 s_1_7  + 2000.000000 r_1_1_5 > 16.995050
s_2_5 + s_2_1 + 1000 r_2_1_5 >= 2
- s_2_5 - s_2_1 - 1000 r_2_1_5 >= -1001
t_2_5 - t_2_1 + 1000.000000 u_2_1_5 - 2.889826 s_2_1  + 2.889826 s_2_7  + 2000.000000 r_2_1_5 > 16.696100
s_1_5 + s_1_2 + 1000 r_1_2_5 >= 2
- s_1_5 - s_1_2 - 1000 r_1_2_5 >= -1001
t_1_5 - t_1_2 + 1000.000000 u_1_2_5 - 3.339903 s_1_2  + 3.339903 s_1_8  + 2000.000000 r_1_2_5 > 18.157189
s_2_5 + s_2_2 + 1000 r_2_2_5 >= 2
- s_2_5 - s_2_2 - 1000 r_2_2_5 >= -1001
t_2_5 - t_2_2 + 1000.000000 u_2_2_5 - 2.889826 s_2_2  + 2.889826 s_2_8  + 2000.000000 r_2_2_5 > 17.397357
s_1_5 + s_1_3 + 1000 r_1_3_5 >= 2
- s_1_5 - s_1_3 - 1000 r_1_3_5 >= -1001
t_1_5 - t_1_3 + 1000.000000 u_1_3_5 - 3.339903 s_1_3  + 3.339903 s_1_8  + 2000.000000 r_1_3_5 > 29.656925
s_2_5 + s_2_3 + 1000 r_2_3_5 >= 2
- s_2_5 - s_2_3 - 1000 r_2_3_5 >= -1001
t_2_5 - t_2_3 + 1000.000000 u_2_3_5 - 2.889826 s_2_3  + 2.889826 s_2_8  + 2000.000000 r_2_3_5 > 22.216133
s_1_5 + s_1_4 + 1000 r_1_4_5 >= 2
- s_1_5 - s_1_4 - 1000 r_1_4_5 >= -1001
t_1_5 - t_1_4 + 1000.000000 u_1_4_5 - 4.987432 s_1_4  + 1.647529 s_1_3  + 3.339903 s_1_8  + 2000.000000 r_1_4_5 > 15.217533
s_2_5 + s_2_4 + 1000 r_2_4_5 >= 2
- s_2_5 - s_2_4 - 1000 r_2_4_5 >= -1001
t_2_5 - t_2_4 + 1000.000000 u_2_4_5 - 4.389254 s_2_4  + 1.499428 s_2_3  + 2.889826 s_2_8  + 2000.000000 r_2_4_5 > 9.812433
t_1_6 - t_1_5 - 1006.679806 s_1_5  + 3.339903 s_1_7  + 3.339903 s_1_8  > -977.655892
t_1_6 - t_2_5 - 1005.779651 s_2_5  + 2.889826 s_2_7  + 2.889826 s_2_8  > -983.513500
t_2_6 - t_1_5 - 1006.679806 s_1_5  + 3.339903 s_1_7  + 3.339903 s_1_8  > -977.655892
t_2_6 - t_2_5 - 1005.779651 s_2_5  + 2.889826 s_2_7  + 2.889826 s_2_8  > -983.513500
t_1_5 - t_1_7 - 1000.000000 s_1_7  > -937.703200
t_1_5 - t_2_7 - 1000.000000 s_2_7  > -972.711300
t_2_5 - t_1_7 - 1000.000000 s_1_7  > -937.703200
t_2_5 - t_2_7 - 1000.000000 s_2_7  > -972.711300
t_1_5 - t_1_8 - 1000.000000 s_1_8  > -937.705171
t_1_5 - t_2_8 - 1000.000000 s_2_8  > -972.869500
t_2_5 - t_1_8 - 1000.000000 s_1_8  > -937.705171
t_2_5 - t_2_8 - 1000.000000 s_2_8  > -972.869500
s_1_7 + s_1_2 + 1000 r_1_2_7 >= 2
- s_1_7 - s_1_2 - 1000 r_1_2_7 >= -1001
t_1_7 - t_1_2 + 1000.000000 u_1_2_7 - 3.339903 s_1_2  + 3.339903 s_1_8  + 2000.000000 r_1_2_7 > 18.157189
s_2_7 + s_2_2 + 1000 r_2_2_7 >= 2
- s_2_7 - s_2_2 - 1000 r_2_2_7 >= -1001
t_2_7 - t_2_2 + 1000.000000 u_2_2_7 - 2.889826 s_2_2  + 2.889826 s_2_8  + 2000.000000 r_2_2_7 > 17.397357
s_1_7 + s_1_3 + 1000 r_1_3_7 >= 2
- s_1_7 - s_1_3 - 1000 r_1_3_7 >= -1001
t_1_7 - t_1_3 + 1000.000000 u_1_3_7 - 3.339903 s_1_3  + 3.339903 s_1_8  + 2000.000000 r_1_3_7 > 29.656925
s_2_7 + s_2_3 + 1000 r_2_3_7 >= 2
- s_2_7 - s_2_3 - 1000 r_2_3_7 >= -1001
t_2_7 - t_2_3 + 1000.000000 u_2_3_7 - 2.889826 s_2_3  + 2.889826 s_2_8  + 2000.000000 r_2_3_7 > 22.216133
s_1_7 + s_1_4 + 1000 r_1_4_7 >= 2
- s_1_7 - s_1_4 - 1000 r_1_4_7 >= -1001
t_1_7 - t_1_4 + 1000.000000 u_1_4_7 - 4.987432 s_1_4  + 1.647529 s_1_3  + 3.339903 s_1_8  + 2000.000000 r_1_4_7 > 15.217533
s_2_7 + s_2_4 + 1000 r_2_4_7 >= 2
- s_2_7 - s_2_4 - 1000 r_2_4_7 >= -1001
t_2_7 - t_2_4 + 1000.000000 u_2_4_7 - 4.389254 s_2_4  + 1.499428 s_2_3  + 2.889826 s_2_8  + 2000.000000 r_2_4_7 > 9.812433
s_1_7 + s_1_8 + 1000 r_1_7_8 >= 2
- s_1_7 - s_1_8 - 1000 r_1_7_8 >= -1001
t_1_7 - t_1_8 - 1000.000000 u_1_7_8 - 0.000000 s_1_8  + 2000.000000 r_1_7_8 > -937.705171
s_2_7 + s_2_8 + 1000 r_2_7_8 >= 2
- s_2_7 - s_2_8 - 1000 r_2_7_8 >= -1001
t_2_7 - t_2_8 - 1000.000000 u_2_7_8 - 0.000000 s_2_8  + 2000.000000 r_2_7_8 > -972.869500
s_1_8 + s_1_1 + 1000 r_1_1_8 >= 2
- s_1_8 - s_1_1 - 1000 r_1_1_8 >= -1001
t_1_8 - t_1_1 + 1000.000000 u_1_1_8 - 3.339903 s_1_1  + 3.339903 s_1_7  + 2000.000000 r_1_1_8 > 16.995050
s_2_8 + s_2_1 + 1000 r_2_1_8 >= 2
- s_2_8 - s_2_1 - 1000 r_2_1_8 >= -1001
t_2_8 - t_2_1 + 1000.000000 u_2_1_8 - 2.889826 s_2_1  + 2.889826 s_2_7  + 2000.000000 r_2_1_8 > 16.696100
s_1_8 + s_1_7 + 1000 r_1_7_8 >= 2
- s_1_8 - s_1_7 - 1000 r_1_7_8 >= -1001
t_1_8 - t_1_7 + 1000.000000 u_1_7_8 - 0.000000 s_1_7  + 2000.000000 r_1_7_8 > 62.296800
s_2_8 + s_2_7 + 1000 r_2_7_8 >= 2
- s_2_8 - s_2_7 - 1000 r_2_7_8 >= -1001
t_2_8 - t_2_7 + 1000.000000 u_2_7_8 - 0.000000 s_2_7  + 2000.000000 r_2_7_8 > 27.288700
Binary
s_1_1
s_2_1
s_1_2
s_2_2
s_1_3
s_2_3
s_1_4
s_2_4
s_1_5
s_2_5
s_1_6
s_2_6
s_1_7
s_2_7
s_1_8
s_2_8
u_1_1_2
r_1_1_2
u_2_1_2
r_2_1_2
u_1_1_3
r_1_1_3
u_2_1_3
r_2_1_3
u_1_1_4
r_1_1_4
u_2_1_4
r_2_1_4
u_1_1_5
r_1_1_5
u_2_1_5
r_2_1_5
u_1_1_8
r_1_1_8
u_2_1_8
r_2_1_8
u_1_2_3
r_1_2_3
u_2_2_3
r_2_2_3
u_1_2_4
r_1_2_4
u_2_2_4
r_2_2_4
u_1_2_5
r_1_2_5
u_2_2_5
r_2_2_5
u_1_2_7
r_1_2_7
u_2_2_7
r_2_2_7
u_1_3_5
r_1_3_5
u_2_3_5
r_2_3_5
u_1_3_7
r_1_3_7
u_2_3_7
r_2_3_7
u_1_4_5
r_1_4_5
u_2_4_5
r_2_4_5
u_1_4_7
r_1_4_7
u_2_4_7
r_2_4_7
u_1_7_8
r_1_7_8
u_2_7_8
r_2_7_8

End
